c Standarized MaxSat Instance
c{
c "sha1sum": "50ff144dee0895ccb797d23186ab746b75e9deea",
c "nvars": 40,
c "ncls": 1132,
c "nhards": 0,
c "nhard_len_stats":
c    { "min": 0, "max": 0, "ave": 0.00,
c      "stddev": 0.00 },
c "nsofts": 1132,
c "nsoft_len_stats":
c    { "min": 2, "max": 2, "ave": 2.00,
c      "stddev": 0.00 },
c "nsoft_wts": 1,
c "soft_wt_stats":
c    { "min": 1, "max": 1, "ave": 1.00,
c      "stddev": 0.00 }
c}
c------------------------------------------------------------
c FILE:  brock200_1.b
c
c Graph Generator
c
c By: Mark Brockington (brock@cs.ualberta.ca)
c and Joe Culberson (joe@cs.ualberta.ca)
c
c Graph Size:200, Clique Size: 21
c Seed:0, Edge Density:  0.75000
c Depth 1 Hiding
c
c Clique Elements are:
c 133 17 92 177 38 19 84 134 107 89 
c 185 91 67 141 149 72 101 135 86 93 
c 80 
c
c Estimated Size of Uncompressed File:   0.1MB
c
p wcnf 40 1132 1133
1 1 2 0
1 -1 -2 0
1 1 3 0
1 -1 -3 0
1 1 4 0
1 -1 -4 0
1 1 6 0
1 -1 -6 0
1 1 7 0
1 -1 -7 0
1 1 8 0
1 -1 -8 0
1 1 9 0
1 -1 -9 0
1 1 10 0
1 -1 -10 0
1 1 12 0
1 -1 -12 0
1 1 13 0
1 -1 -13 0
1 1 14 0
1 -1 -14 0
1 1 16 0
1 -1 -16 0
1 1 17 0
1 -1 -17 0
1 1 18 0
1 -1 -18 0
1 1 19 0
1 -1 -19 0
1 1 20 0
1 -1 -20 0
1 1 22 0
1 -1 -22 0
1 1 23 0
1 -1 -23 0
1 1 24 0
1 -1 -24 0
1 1 31 0
1 -1 -31 0
1 1 33 0
1 -1 -33 0
1 1 34 0
1 -1 -34 0
1 1 36 0
1 -1 -36 0
1 1 38 0
1 -1 -38 0
1 1 39 0
1 -1 -39 0
1 2 3 0
1 -2 -3 0
1 2 4 0
1 -2 -4 0
1 2 5 0
1 -2 -5 0
1 2 6 0
1 -2 -6 0
1 2 7 0
1 -2 -7 0
1 2 10 0
1 -2 -10 0
1 2 11 0
1 -2 -11 0
1 2 12 0
1 -2 -12 0
1 2 14 0
1 -2 -14 0
1 2 15 0
1 -2 -15 0
1 2 16 0
1 -2 -16 0
1 2 17 0
1 -2 -17 0
1 2 18 0
1 -2 -18 0
1 2 19 0
1 -2 -19 0
1 2 20 0
1 -2 -20 0
1 2 22 0
1 -2 -22 0
1 2 23 0
1 -2 -23 0
1 2 25 0
1 -2 -25 0
1 2 27 0
1 -2 -27 0
1 2 28 0
1 -2 -28 0
1 2 29 0
1 -2 -29 0
1 2 31 0
1 -2 -31 0
1 2 33 0
1 -2 -33 0
1 2 34 0
1 -2 -34 0
1 2 35 0
1 -2 -35 0
1 2 38 0
1 -2 -38 0
1 2 40 0
1 -2 -40 0
1 3 4 0
1 -3 -4 0
1 3 5 0
1 -3 -5 0
1 3 7 0
1 -3 -7 0
1 3 9 0
1 -3 -9 0
1 3 10 0
1 -3 -10 0
1 3 11 0
1 -3 -11 0
1 3 13 0
1 -3 -13 0
1 3 14 0
1 -3 -14 0
1 3 15 0
1 -3 -15 0
1 3 16 0
1 -3 -16 0
1 3 17 0
1 -3 -17 0
1 3 18 0
1 -3 -18 0
1 3 19 0
1 -3 -19 0
1 3 20 0
1 -3 -20 0
1 3 21 0
1 -3 -21 0
1 3 23 0
1 -3 -23 0
1 3 24 0
1 -3 -24 0
1 3 25 0
1 -3 -25 0
1 3 26 0
1 -3 -26 0
1 3 27 0
1 -3 -27 0
1 3 29 0
1 -3 -29 0
1 3 30 0
1 -3 -30 0
1 3 32 0
1 -3 -32 0
1 3 33 0
1 -3 -33 0
1 3 34 0
1 -3 -34 0
1 3 36 0
1 -3 -36 0
1 3 37 0
1 -3 -37 0
1 3 38 0
1 -3 -38 0
1 4 5 0
1 -4 -5 0
1 4 6 0
1 -4 -6 0
1 4 7 0
1 -4 -7 0
1 4 8 0
1 -4 -8 0
1 4 10 0
1 -4 -10 0
1 4 11 0
1 -4 -11 0
1 4 12 0
1 -4 -12 0
1 4 13 0
1 -4 -13 0
1 4 14 0
1 -4 -14 0
1 4 15 0
1 -4 -15 0
1 4 16 0
1 -4 -16 0
1 4 17 0
1 -4 -17 0
1 4 19 0
1 -4 -19 0
1 4 20 0
1 -4 -20 0
1 4 21 0
1 -4 -21 0
1 4 22 0
1 -4 -22 0
1 4 23 0
1 -4 -23 0
1 4 24 0
1 -4 -24 0
1 4 25 0
1 -4 -25 0
1 4 27 0
1 -4 -27 0
1 4 29 0
1 -4 -29 0
1 4 30 0
1 -4 -30 0
1 4 31 0
1 -4 -31 0
1 4 32 0
1 -4 -32 0
1 4 33 0
1 -4 -33 0
1 4 35 0
1 -4 -35 0
1 4 36 0
1 -4 -36 0
1 4 37 0
1 -4 -37 0
1 4 39 0
1 -4 -39 0
1 4 40 0
1 -4 -40 0
1 5 6 0
1 -5 -6 0
1 5 7 0
1 -5 -7 0
1 5 9 0
1 -5 -9 0
1 5 10 0
1 -5 -10 0
1 5 12 0
1 -5 -12 0
1 5 13 0
1 -5 -13 0
1 5 14 0
1 -5 -14 0
1 5 15 0
1 -5 -15 0
1 5 18 0
1 -5 -18 0
1 5 19 0
1 -5 -19 0
1 5 20 0
1 -5 -20 0
1 5 21 0
1 -5 -21 0
1 5 23 0
1 -5 -23 0
1 5 24 0
1 -5 -24 0
1 5 25 0
1 -5 -25 0
1 5 26 0
1 -5 -26 0
1 5 27 0
1 -5 -27 0
1 5 29 0
1 -5 -29 0
1 5 30 0
1 -5 -30 0
1 5 31 0
1 -5 -31 0
1 5 32 0
1 -5 -32 0
1 5 34 0
1 -5 -34 0
1 5 35 0
1 -5 -35 0
1 5 36 0
1 -5 -36 0
1 5 37 0
1 -5 -37 0
1 5 39 0
1 -5 -39 0
1 5 40 0
1 -5 -40 0
1 6 7 0
1 -6 -7 0
1 6 8 0
1 -6 -8 0
1 6 9 0
1 -6 -9 0
1 6 10 0
1 -6 -10 0
1 6 11 0
1 -6 -11 0
1 6 12 0
1 -6 -12 0
1 6 13 0
1 -6 -13 0
1 6 15 0
1 -6 -15 0
1 6 16 0
1 -6 -16 0
1 6 17 0
1 -6 -17 0
1 6 18 0
1 -6 -18 0
1 6 19 0
1 -6 -19 0
1 6 21 0
1 -6 -21 0
1 6 22 0
1 -6 -22 0
1 6 23 0
1 -6 -23 0
1 6 24 0
1 -6 -24 0
1 6 25 0
1 -6 -25 0
1 6 26 0
1 -6 -26 0
1 6 27 0
1 -6 -27 0
1 6 29 0
1 -6 -29 0
1 6 30 0
1 -6 -30 0
1 6 31 0
1 -6 -31 0
1 6 32 0
1 -6 -32 0
1 6 34 0
1 -6 -34 0
1 6 35 0
1 -6 -35 0
1 6 36 0
1 -6 -36 0
1 6 37 0
1 -6 -37 0
1 6 38 0
1 -6 -38 0
1 6 39 0
1 -6 -39 0
1 6 40 0
1 -6 -40 0
1 7 8 0
1 -7 -8 0
1 7 9 0
1 -7 -9 0
1 7 13 0
1 -7 -13 0
1 7 15 0
1 -7 -15 0
1 7 17 0
1 -7 -17 0
1 7 18 0
1 -7 -18 0
1 7 20 0
1 -7 -20 0
1 7 21 0
1 -7 -21 0
1 7 22 0
1 -7 -22 0
1 7 23 0
1 -7 -23 0
1 7 24 0
1 -7 -24 0
1 7 25 0
1 -7 -25 0
1 7 26 0
1 -7 -26 0
1 7 30 0
1 -7 -30 0
1 7 31 0
1 -7 -31 0
1 7 33 0
1 -7 -33 0
1 7 35 0
1 -7 -35 0
1 7 36 0
1 -7 -36 0
1 7 37 0
1 -7 -37 0
1 8 9 0
1 -8 -9 0
1 8 10 0
1 -8 -10 0
1 8 11 0
1 -8 -11 0
1 8 12 0
1 -8 -12 0
1 8 13 0
1 -8 -13 0
1 8 15 0
1 -8 -15 0
1 8 16 0
1 -8 -16 0
1 8 17 0
1 -8 -17 0
1 8 18 0
1 -8 -18 0
1 8 19 0
1 -8 -19 0
1 8 20 0
1 -8 -20 0
1 8 21 0
1 -8 -21 0
1 8 24 0
1 -8 -24 0
1 8 25 0
1 -8 -25 0
1 8 26 0
1 -8 -26 0
1 8 27 0
1 -8 -27 0
1 8 32 0
1 -8 -32 0
1 8 34 0
1 -8 -34 0
1 8 35 0
1 -8 -35 0
1 8 37 0
1 -8 -37 0
1 8 38 0
1 -8 -38 0
1 8 39 0
1 -8 -39 0
1 8 40 0
1 -8 -40 0
1 9 10 0
1 -9 -10 0
1 9 11 0
1 -9 -11 0
1 9 12 0
1 -9 -12 0
1 9 13 0
1 -9 -13 0
1 9 14 0
1 -9 -14 0
1 9 15 0
1 -9 -15 0
1 9 17 0
1 -9 -17 0
1 9 19 0
1 -9 -19 0
1 9 23 0
1 -9 -23 0
1 9 24 0
1 -9 -24 0
1 9 25 0
1 -9 -25 0
1 9 26 0
1 -9 -26 0
1 9 28 0
1 -9 -28 0
1 9 30 0
1 -9 -30 0
1 9 31 0
1 -9 -31 0
1 9 32 0
1 -9 -32 0
1 9 33 0
1 -9 -33 0
1 9 34 0
1 -9 -34 0
1 9 36 0
1 -9 -36 0
1 9 38 0
1 -9 -38 0
1 9 39 0
1 -9 -39 0
1 9 40 0
1 -9 -40 0
1 10 11 0
1 -10 -11 0
1 10 12 0
1 -10 -12 0
1 10 13 0
1 -10 -13 0
1 10 14 0
1 -10 -14 0
1 10 15 0
1 -10 -15 0
1 10 17 0
1 -10 -17 0
1 10 18 0
1 -10 -18 0
1 10 19 0
1 -10 -19 0
1 10 20 0
1 -10 -20 0
1 10 21 0
1 -10 -21 0
1 10 22 0
1 -10 -22 0
1 10 23 0
1 -10 -23 0
1 10 25 0
1 -10 -25 0
1 10 28 0
1 -10 -28 0
1 10 29 0
1 -10 -29 0
1 10 30 0
1 -10 -30 0
1 10 31 0
1 -10 -31 0
1 10 33 0
1 -10 -33 0
1 10 35 0
1 -10 -35 0
1 10 37 0
1 -10 -37 0
1 10 39 0
1 -10 -39 0
1 10 40 0
1 -10 -40 0
1 11 12 0
1 -11 -12 0
1 11 13 0
1 -11 -13 0
1 11 15 0
1 -11 -15 0
1 11 18 0
1 -11 -18 0
1 11 20 0
1 -11 -20 0
1 11 21 0
1 -11 -21 0
1 11 22 0
1 -11 -22 0
1 11 24 0
1 -11 -24 0
1 11 26 0
1 -11 -26 0
1 11 27 0
1 -11 -27 0
1 11 28 0
1 -11 -28 0
1 11 29 0
1 -11 -29 0
1 11 30 0
1 -11 -30 0
1 11 31 0
1 -11 -31 0
1 11 32 0
1 -11 -32 0
1 11 33 0
1 -11 -33 0
1 11 34 0
1 -11 -34 0
1 11 35 0
1 -11 -35 0
1 11 38 0
1 -11 -38 0
1 11 39 0
1 -11 -39 0
1 12 13 0
1 -12 -13 0
1 12 14 0
1 -12 -14 0
1 12 15 0
1 -12 -15 0
1 12 16 0
1 -12 -16 0
1 12 17 0
1 -12 -17 0
1 12 18 0
1 -12 -18 0
1 12 20 0
1 -12 -20 0
1 12 21 0
1 -12 -21 0
1 12 22 0
1 -12 -22 0
1 12 23 0
1 -12 -23 0
1 12 24 0
1 -12 -24 0
1 12 25 0
1 -12 -25 0
1 12 26 0
1 -12 -26 0
1 12 28 0
1 -12 -28 0
1 12 29 0
1 -12 -29 0
1 12 30 0
1 -12 -30 0
1 12 31 0
1 -12 -31 0
1 12 32 0
1 -12 -32 0
1 12 33 0
1 -12 -33 0
1 12 35 0
1 -12 -35 0
1 12 36 0
1 -12 -36 0
1 12 37 0
1 -12 -37 0
1 12 38 0
1 -12 -38 0
1 12 40 0
1 -12 -40 0
1 13 14 0
1 -13 -14 0
1 13 15 0
1 -13 -15 0
1 13 16 0
1 -13 -16 0
1 13 17 0
1 -13 -17 0
1 13 18 0
1 -13 -18 0
1 13 19 0
1 -13 -19 0
1 13 20 0
1 -13 -20 0
1 13 21 0
1 -13 -21 0
1 13 23 0
1 -13 -23 0
1 13 26 0
1 -13 -26 0
1 13 27 0
1 -13 -27 0
1 13 30 0
1 -13 -30 0
1 13 31 0
1 -13 -31 0
1 13 34 0
1 -13 -34 0
1 13 35 0
1 -13 -35 0
1 13 36 0
1 -13 -36 0
1 13 37 0
1 -13 -37 0
1 13 38 0
1 -13 -38 0
1 13 40 0
1 -13 -40 0
1 14 15 0
1 -14 -15 0
1 14 16 0
1 -14 -16 0
1 14 17 0
1 -14 -17 0
1 14 20 0
1 -14 -20 0
1 14 26 0
1 -14 -26 0
1 14 27 0
1 -14 -27 0
1 14 28 0
1 -14 -28 0
1 14 29 0
1 -14 -29 0
1 14 30 0
1 -14 -30 0
1 14 31 0
1 -14 -31 0
1 14 32 0
1 -14 -32 0
1 14 33 0
1 -14 -33 0
1 14 35 0
1 -14 -35 0
1 14 36 0
1 -14 -36 0
1 14 37 0
1 -14 -37 0
1 14 38 0
1 -14 -38 0
1 14 39 0
1 -14 -39 0
1 14 40 0
1 -14 -40 0
1 15 16 0
1 -15 -16 0
1 15 17 0
1 -15 -17 0
1 15 19 0
1 -15 -19 0
1 15 20 0
1 -15 -20 0
1 15 21 0
1 -15 -21 0
1 15 22 0
1 -15 -22 0
1 15 23 0
1 -15 -23 0
1 15 25 0
1 -15 -25 0
1 15 26 0
1 -15 -26 0
1 15 27 0
1 -15 -27 0
1 15 28 0
1 -15 -28 0
1 15 29 0
1 -15 -29 0
1 15 30 0
1 -15 -30 0
1 15 31 0
1 -15 -31 0
1 15 34 0
1 -15 -34 0
1 15 36 0
1 -15 -36 0
1 15 37 0
1 -15 -37 0
1 15 38 0
1 -15 -38 0
1 15 40 0
1 -15 -40 0
1 16 17 0
1 -16 -17 0
1 16 18 0
1 -16 -18 0
1 16 19 0
1 -16 -19 0
1 16 20 0
1 -16 -20 0
1 16 21 0
1 -16 -21 0
1 16 22 0
1 -16 -22 0
1 16 25 0
1 -16 -25 0
1 16 26 0
1 -16 -26 0
1 16 27 0
1 -16 -27 0
1 16 29 0
1 -16 -29 0
1 16 31 0
1 -16 -31 0
1 16 32 0
1 -16 -32 0
1 16 33 0
1 -16 -33 0
1 16 34 0
1 -16 -34 0
1 16 35 0
1 -16 -35 0
1 16 36 0
1 -16 -36 0
1 16 37 0
1 -16 -37 0
1 16 39 0
1 -16 -39 0
1 16 40 0
1 -16 -40 0
1 17 18 0
1 -17 -18 0
1 17 19 0
1 -17 -19 0
1 17 21 0
1 -17 -21 0
1 17 22 0
1 -17 -22 0
1 17 23 0
1 -17 -23 0
1 17 24 0
1 -17 -24 0
1 17 26 0
1 -17 -26 0
1 17 27 0
1 -17 -27 0
1 17 28 0
1 -17 -28 0
1 17 30 0
1 -17 -30 0
1 17 31 0
1 -17 -31 0
1 17 33 0
1 -17 -33 0
1 17 34 0
1 -17 -34 0
1 17 35 0
1 -17 -35 0
1 17 36 0
1 -17 -36 0
1 17 38 0
1 -17 -38 0
1 18 20 0
1 -18 -20 0
1 18 21 0
1 -18 -21 0
1 18 22 0
1 -18 -22 0
1 18 23 0
1 -18 -23 0
1 18 24 0
1 -18 -24 0
1 18 26 0
1 -18 -26 0
1 18 28 0
1 -18 -28 0
1 18 29 0
1 -18 -29 0
1 18 31 0
1 -18 -31 0
1 18 33 0
1 -18 -33 0
1 18 34 0
1 -18 -34 0
1 18 35 0
1 -18 -35 0
1 18 36 0
1 -18 -36 0
1 18 38 0
1 -18 -38 0
1 18 40 0
1 -18 -40 0
1 19 20 0
1 -19 -20 0
1 19 21 0
1 -19 -21 0
1 19 22 0
1 -19 -22 0
1 19 23 0
1 -19 -23 0
1 19 24 0
1 -19 -24 0
1 19 25 0
1 -19 -25 0
1 19 26 0
1 -19 -26 0
1 19 27 0
1 -19 -27 0
1 19 29 0
1 -19 -29 0
1 19 30 0
1 -19 -30 0
1 19 33 0
1 -19 -33 0
1 19 34 0
1 -19 -34 0
1 19 35 0
1 -19 -35 0
1 19 36 0
1 -19 -36 0
1 19 37 0
1 -19 -37 0
1 20 21 0
1 -20 -21 0
1 20 22 0
1 -20 -22 0
1 20 23 0
1 -20 -23 0
1 20 27 0
1 -20 -27 0
1 20 32 0
1 -20 -32 0
1 20 35 0
1 -20 -35 0
1 20 37 0
1 -20 -37 0
1 20 38 0
1 -20 -38 0
1 20 39 0
1 -20 -39 0
1 21 22 0
1 -21 -22 0
1 21 24 0
1 -21 -24 0
1 21 25 0
1 -21 -25 0
1 21 26 0
1 -21 -26 0
1 21 27 0
1 -21 -27 0
1 21 28 0
1 -21 -28 0
1 21 29 0
1 -21 -29 0
1 21 30 0
1 -21 -30 0
1 21 31 0
1 -21 -31 0
1 21 32 0
1 -21 -32 0
1 21 33 0
1 -21 -33 0
1 21 35 0
1 -21 -35 0
1 21 36 0
1 -21 -36 0
1 21 37 0
1 -21 -37 0
1 22 23 0
1 -22 -23 0
1 22 24 0
1 -22 -24 0
1 22 25 0
1 -22 -25 0
1 22 26 0
1 -22 -26 0
1 22 28 0
1 -22 -28 0
1 22 31 0
1 -22 -31 0
1 22 32 0
1 -22 -32 0
1 22 33 0
1 -22 -33 0
1 22 34 0
1 -22 -34 0
1 22 35 0
1 -22 -35 0
1 22 36 0
1 -22 -36 0
1 22 37 0
1 -22 -37 0
1 22 40 0
1 -22 -40 0
1 23 25 0
1 -23 -25 0
1 23 26 0
1 -23 -26 0
1 23 27 0
1 -23 -27 0
1 23 28 0
1 -23 -28 0
1 23 32 0
1 -23 -32 0
1 23 33 0
1 -23 -33 0
1 23 35 0
1 -23 -35 0
1 23 36 0
1 -23 -36 0
1 23 37 0
1 -23 -37 0
1 23 39 0
1 -23 -39 0
1 23 40 0
1 -23 -40 0
1 24 25 0
1 -24 -25 0
1 24 27 0
1 -24 -27 0
1 24 29 0
1 -24 -29 0
1 24 32 0
1 -24 -32 0
1 24 33 0
1 -24 -33 0
1 24 36 0
1 -24 -36 0
1 24 37 0
1 -24 -37 0
1 24 38 0
1 -24 -38 0
1 24 39 0
1 -24 -39 0
1 24 40 0
1 -24 -40 0
1 25 26 0
1 -25 -26 0
1 25 27 0
1 -25 -27 0
1 25 28 0
1 -25 -28 0
1 25 29 0
1 -25 -29 0
1 25 30 0
1 -25 -30 0
1 25 31 0
1 -25 -31 0
1 25 32 0
1 -25 -32 0
1 25 33 0
1 -25 -33 0
1 25 34 0
1 -25 -34 0
1 25 35 0
1 -25 -35 0
1 25 37 0
1 -25 -37 0
1 25 38 0
1 -25 -38 0
1 25 39 0
1 -25 -39 0
1 25 40 0
1 -25 -40 0
1 26 27 0
1 -26 -27 0
1 26 28 0
1 -26 -28 0
1 26 29 0
1 -26 -29 0
1 26 31 0
1 -26 -31 0
1 26 32 0
1 -26 -32 0
1 26 33 0
1 -26 -33 0
1 26 34 0
1 -26 -34 0
1 26 35 0
1 -26 -35 0
1 26 36 0
1 -26 -36 0
1 26 37 0
1 -26 -37 0
1 26 38 0
1 -26 -38 0
1 26 39 0
1 -26 -39 0
1 26 40 0
1 -26 -40 0
1 27 28 0
1 -27 -28 0
1 27 30 0
1 -27 -30 0
1 27 31 0
1 -27 -31 0
1 27 32 0
1 -27 -32 0
1 27 33 0
1 -27 -33 0
1 27 34 0
1 -27 -34 0
1 27 35 0
1 -27 -35 0
1 27 36 0
1 -27 -36 0
1 27 37 0
1 -27 -37 0
1 27 38 0
1 -27 -38 0
1 27 39 0
1 -27 -39 0
1 28 31 0
1 -28 -31 0
1 28 32 0
1 -28 -32 0
1 28 33 0
1 -28 -33 0
1 28 34 0
1 -28 -34 0
1 28 35 0
1 -28 -35 0
1 28 36 0
1 -28 -36 0
1 28 38 0
1 -28 -38 0
1 28 40 0
1 -28 -40 0
1 29 31 0
1 -29 -31 0
1 29 32 0
1 -29 -32 0
1 29 33 0
1 -29 -33 0
1 29 34 0
1 -29 -34 0
1 29 35 0
1 -29 -35 0
1 29 36 0
1 -29 -36 0
1 29 37 0
1 -29 -37 0
1 29 38 0
1 -29 -38 0
1 29 39 0
1 -29 -39 0
1 30 31 0
1 -30 -31 0
1 30 32 0
1 -30 -32 0
1 30 33 0
1 -30 -33 0
1 30 35 0
1 -30 -35 0
1 30 38 0
1 -30 -38 0
1 30 39 0
1 -30 -39 0
1 30 40 0
1 -30 -40 0
1 31 32 0
1 -31 -32 0
1 31 33 0
1 -31 -33 0
1 31 37 0
1 -31 -37 0
1 31 39 0
1 -31 -39 0
1 31 40 0
1 -31 -40 0
1 32 33 0
1 -32 -33 0
1 32 34 0
1 -32 -34 0
1 32 35 0
1 -32 -35 0
1 32 36 0
1 -32 -36 0
1 32 39 0
1 -32 -39 0
1 32 40 0
1 -32 -40 0
1 33 35 0
1 -33 -35 0
1 33 37 0
1 -33 -37 0
1 33 38 0
1 -33 -38 0
1 33 39 0
1 -33 -39 0
1 34 35 0
1 -34 -35 0
1 34 37 0
1 -34 -37 0
1 34 40 0
1 -34 -40 0
1 35 36 0
1 -35 -36 0
1 35 37 0
1 -35 -37 0
1 35 38 0
1 -35 -38 0
1 35 40 0
1 -35 -40 0
1 36 38 0
1 -36 -38 0
1 36 39 0
1 -36 -39 0
1 36 40 0
1 -36 -40 0
1 37 38 0
1 -37 -38 0
1 37 39 0
1 -37 -39 0
1 38 39 0
1 -38 -39 0
1 39 40 0
1 -39 -40 0
